
Value of objective function: -896645

Actual values of the variables:
A301                      230.379
A302                      172.284
A303                          170
A304                            0
A305                            0
A306                            0
A307                            0
A308                      76.1409
A309                            0
A310                            0
A311                       165.57
A312                            0
A313                            0
A314                      12.7353
A315                      14.3084
A316                      14.4726
A317                            0
A318                      16.5634
A319                            0
A320                            0
A321                      26.6072
A322                            0
A323                            0
A324                      329.177
A325                            0
A326                            0
A327                          390
A328                            0
A329                            0
A330                      66.4171
A331                      263.341
A332                      1333.26
A333                            0
A334                            0
A335                      244.501
A336                      507.113
A337                          220
A338                      475.901
A339                            0
A340                      2374.46
A341                      709.386
A342                         1100
A343                            0
A344                          200
A345                          300
A346                          400
A347                            0
A348                          200
A349                      257.722
A350                            0
A351                      157.941
A352                            0
A353                            0
A354                            0
A355                         5.23
A356                            0
A357                      307.408
A358                      22.8976
A359                            0
A360                      781.165
A361                      10371.8
A362                      10371.8
A363                      3460.49
A364                       3460.5
A365                      3460.51
A366                      3460.52
A367                      3460.53
A368                            0
A369                      6916.23
A370                      6916.24
A371                      8644.09
A372                      10371.9
A373                      3803.67
A374                            0
A375                            0
A376                            0
A377                            0
A378                            0
A379                            0
A380                            0
A381                            0
A382                            0
A383                            0
A384                            0
A433                       17.701
A434                       17.701
A435                       17.701
A436                       17.701
A437                            0
A385                      3.45385
A386                      3.45384
A387                      3.45383
A388                      3.45382
A389                      3.45381
A390                            0
A391                            0
A392                            0
A393                            0
A394                            0
A395                            0
A396                       3.4538
A397                      15.9065
A398                      1.95347
A399                      9.42838
A400                      8.17812
A401                      1.73219
A402                     0.313471
A403                      5.67897
A404                            0
A405                            0
A406                            0
A407                      14.6144
A408                      14.6144
A409                      3.45763
A410                       9.9872
A411                            0
A412                            0
A413                       7.3402
A414                            0
A415                      10.3655
A416                            0
A417                            0
A418                            0
A419                      6.91148
A420                     0.939062
A421                            0
A422                            0
A424                            0
A425                            0
A426                            0
A427                            0
A428                            0
A429                            0
A430                            0
A431                            0
A432                            0
A423                      0.00112
A438                      2708.49
A439                            0
A440                            0
A441                            0
A442                            0
